(set-logic QF_S)
(declare-fun var0 () String)
(declare-fun var1 () String)
(declare-fun var2 () String)
(declare-fun var3 () Int)
(declare-fun var4 () Int)
(declare-fun var5 () Int)
(declare-fun var6 () Bool)
(declare-fun var7 () Bool)
(declare-fun var8 () Bool)
(assert (str.contains (str.at (str.at var0 var3) (str.indexof var0 var2 var4)) (str.at (str.substr "Q\\\\}X/_zaw2" var5 var3) (str.len var2))))
(assert (> var3 10))
(assert (str.prefixof (str.replace var1 var1 var1) (str.replace "[g\\\\a$PqpG8" var1 var0)))
(assert (str.prefixof (str.at var1 var3) (str.substr (str.substr var1 var4 var4) (str.indexof var1 var1 var5) (str.len var2))))
(check-sat)